************************************************************************
file with basedata            : n/a
initial value random generator: n/a
************************************************************************
projects                      :  1
jobs (incl. supersource/sink ):  32
horizon                       :  173
RESOURCES
  - renewable                 :  4   R
  - nonrenewable              :  0   N
  - doubly constrained        :  0   D
************************************************************************
PROJECT INFORMATION:
pronr.  #jobs rel.date duedate tardcost  MPM-Time
    1     30      0       48       27       48
************************************************************************
PRECEDENCE RELATIONS:
jobnr.    #modes  #successors   successors
   1        1          3           2   3   4
   2        1          3           5  10  13
   3        1          3           6   9  15
   4        1          1          28
   5        1          2          12  29
   6        1          3           7   8  13
   7        1          3          16  19  22
   8        1          1          31
   9        1          1          16
  10        1          2          11  14
  11        1          1          15
  12        1          2          21  23
  13        1          1          25
  14        1          1          24
  15        1          3          17  26  27
  16        1          1          24
  17        1          2          18  20
  18        1          1          21
  19        1          1          23
  20        1          1          21
  21        1          1          30
  22        1          1          26
  23        1          1          25
  24        1          2          28  29
  25        1          1          30
  26        1          1          29
  27        1          1          31
  28        1          1          30
  29        1          1          32
  30        1          1          32
  31        1          1          32
  32        1          0        
************************************************************************
REQUESTS/DURATIONS:
jobnr. mode duration  R 1  R 2  R 3  R 4
------------------------------------------------------------------------
  1      1     0    
  2      1     1       3
                       1
                       3
                       2
  3      1     5       2   2   2   0   0
                       7   7   7   0   0
                       6   6   6   0   0
                       1   1   1   0   0
  4      1     7       0   0   0   0   0   0   0
                       5   0   5   0   5   0   5
                      10   0  10   0  10   0  10
                       2   0   2   0   2   0   2
  5      1     2       0   4
                       0   2
                       0   3
                       0   7
  6      1     8       0   5   0   5   5   5   5   5
                       0   4   0   4   4   4   4   4
                       0   6   0   6   6   6   6   6
                       0   7   0   7   7   7   7   7
  7      1    10       2   2   2   2   2   2   2   2   2   2
                       6   6   6   6   6   6   6   6   6   6
                       0   0   0   0   0   0   0   0   0   0
                       7   7   7   7   7   7   7   7   7   7
  8      1     3       2   2   2
                       3   3   3
                       0   0   0
                       2   2   2
  9      1     7       0   3   3   3   3   3   0
                       0   7   7   7   7   7   0
                       0   7   7   7   7   7   0
                       0   0   0   0   0   0   0
 10      1     2       4   4
                       3   3
                       0   0
                       7   7
 11      1    10       9   9   9   9   9   0   9   9   9   9
                      10  10  10  10  10   0  10  10  10  10
                       3   3   3   3   3   0   3   3   3   3
                       4   4   4   4   4   0   4   4   4   4
 12      1     7       4   4   4   0   4   4   4
                       0   0   0   0   0   0   0
                       1   1   1   0   1   1   1
                       0   0   0   0   0   0   0
 13      1     9       0   0   0   0   0   0   0   0   0
                       0   0   0   0   0   0   0   0   0
                       3   3   3   3   3   3   3   0   3
                       7   7   7   7   7   7   7   0   7
 14      1     5       0   0   0   0   0
                       0   0   0   0   0
                       0   0   0   6   6
                       0   0   0   0   0
 15      1     5       0   0   0   0   0
                       2   2   2   2   2
                       6   6   6   6   6
                       2   2   2   2   2
 16      1     6       9   9   9   9   0   9
                       0   0   0   0   0   0
                       7   7   7   7   0   7
                       2   2   2   2   0   2
 17      1     9       7   7   7   7   0   7   0   7   7
                       3   3   3   3   0   3   0   3   3
                       4   4   4   4   0   4   0   4   4
                       3   3   3   3   0   3   0   3   3
 18      1     6       0   0   0   0   0   0
                       0   0   0   0   0   0
                       0   9   9   9   9   9
                       0   0   0   0   0   0
 19      1     6       0   0   0   0   0   0
                       8   8   0   0   0   8
                       0   0   0   0   0   0
                       4   4   0   0   0   4
 20      1     7       0   0   0   0   0   0   0
                       0   5   5   5   5   5   5
                       0   1   1   1   1   1   1
                       0   5   5   5   5   5   5
 21      1     4       0   0   4   0
                       0   0   7   0
                       0   0   0   0
                       0   0   7   0
 22      1     8       0   0   0   0   0   0   0   0
                       8   0   0   8   8   0   0   8
                       0   0   0   0   0   0   0   0
                       4   0   0   4   4   0   0   4
 23      1     5       3   3   3   3   3
                       5   5   5   5   5
                       0   0   0   0   0
                       4   4   4   4   4
 24      1    10       2   2   2   2   2   0   2   2   2   2
                       7   7   7   7   7   0   7   7   7   7
                       5   5   5   5   5   0   5   5   5   5
                       1   1   1   1   1   0   1   1   1   1
 25      1     5       6   0   6   0   0
                       5   0   5   0   0
                      10   0  10   0   0
                       3   0   3   0   0
 26      1     3       2   2   2
                      10  10  10
                       0   0   0
                       8   8   8
 27      1     7       0   2   2   2   2   2   2
                       0  10  10  10  10  10  10
                       0   0   0   0   0   0   0
                       0   0   0   0   0   0   0
 28      1     5       0   6   6   0   6
                       0   8   8   0   8
                       0   0   0   0   0
                       0   3   3   0   3
 29      1     2       4   4
                       1   1
                      10  10
                       7   7
 30      1     4       0   3   3   3
                       0   3   3   3
                       0   1   1   1
                       0   5   5   5
 31      1     5       0   0   0   0   0
                       5   5   5   5   0
                       1   1   1   1   0
                       1   1   1   1   0
 32      1     0    
************************************************************************
RESOURCEAVAILABILITIES:
  R 1  R 2  R 3  R 4

  17  17  17  17   0   0  17   0  17  17   0   0  17  17   0   0  17  17   0  17   0  17  17  17  17  17  17  17  17  17  17  17  17  17  17   0  17  17   0  17  17  17  17  17  17  17  17  17  17  17  17   0   0   0  17  17   0  17  17  17  17  17  17  17  17  17  17  17  17  17  17  17  17  17  17  17  17  17   0   0  17  17   0  17  17  17  17  17  17  17  17   0   0  17   0   0  17   0  17  17  17   0  17  17  17  17   0   0  17  17  17  17  17   0  17  17  17   0  17  17  17  17  17  17  17  17   0  17  17  17  17  17   0  17  17  17  17  17  17  17   0  17  17  17   0  17  17  17   0   0  17  17  17   0  17  17  17  17  17  17  17  17  17  17  17  17  17  17   0  17  17  17  17

  24  24  24  24   0   0  24   0  24  24   0   0  24  24   0   0  24  24   0  24   0  24  24  24  24  24  24  24  24  24  24  24  24  24  24   0  24  24   0  24  24  24  24  24  24  24  24  24  24  24  24   0   0   0  24  24   0  24  24  24  24  24  24  24  24  24  24  24  24  24  24  24  24  24  24  24  24  24   0   0  24  24   0  24  24  24  24  24  24  24  24   0   0  24   0   0  24   0  24  24  24   0  24  24  24  24   0   0  24  24  24  24  24   0  24  24  24   0  24  24  24  24  24  24  24  24   0  24  24  24  24  24   0  24  24  24  24  24  24  24   0  24  24  24   0  24  24  24   0   0  24  24  24   0  24  24  24  24  24  24  24  24  24  24  24  24  24  24   0  24  24  24  24

  26  26  26  26   0   0  26   0  26  26   0   0  26  26   0   0  26  26   0  26   0  26  26  26  26  26  26  26  26  26  26  26  26  26  26   0  26  26   0  26  26  26  26  26  26  26  26  26  26  26  26   0   0   0  26  26   0  26  26  26  26  26  26  26  26  26  26  26  26  26  26  26  26  26  26  26  26  26   0   0  26  26   0  26  26  26  26  26  26  26  26   0   0  26   0   0  26   0  26  26  26   0  26  26  26  26   0   0  26  26  26  26  26   0  26  26  26   0  26  26  26  26  26  26  26  26   0  26  26  26  26  26   0  26  26  26  26  26  26  26   0  26  26  26   0  26  26  26   0   0  26  26  26   0  26  26  26  26  26  26  26  26  26  26  26  26  26  26   0  26  26  26  26

  15  15  15  15   0   0  15   0  15  15   0   0  15  15   0   0  15  15   0  15   0  15  15  15  15  15  15  15  15  15  15  15  15  15  15   0  15  15   0  15  15  15  15  15  15  15  15  15  15  15  15   0   0   0  15  15   0  15  15  15  15  15  15  15  15  15  15  15  15  15  15  15  15  15  15  15  15  15   0   0  15  15   0  15  15  15  15  15  15  15  15   0   0  15   0   0  15   0  15  15  15   0  15  15  15  15   0   0  15  15  15  15  15   0  15  15  15   0  15  15  15  15  15  15  15  15   0  15  15  15  15  15   0  15  15  15  15  15  15  15   0  15  15  15   0  15  15  15   0   0  15  15  15   0  15  15  15  15  15  15  15  15  15  15  15  15  15  15   0  15  15  15  15

************************************************************************
